n=17;
m=15;
Ha=[[0.050000,0.050000,0.050000,0.050000,0.050000,0.050000,0.050000,0.050000,0.050000,0.050000,0.050000,0.050000,0.050000,0.050000,0.050000,3.000000,3.000000],[0.050000,0.050000,0.050000,0.050000,0.050000,13.600000,13.600000,13.600000,13.600000,13.600000,13.600000,13.600000,0.050000,0.050000,0.050000,3.000000,3.000000],[0.050000,0.050000,0.050000,0.050000,0.050000,13.600000,13.600000,13.600000,13.600000,13.600000,13.600000,13.600000,0.050000,0.050000,0.050000,3.000000,3.000000],[0.050000,0.050000,0.050000,0.050000,0.050000,13.600000,13.600000,13.600000,13.600000,13.600000,13.600000,13.600000,0.050000,0.050000,0.050000,3.000000,3.000000],[0.050000,0.050000,0.050000,0.050000,0.050000,0.300000,0.300000,0.300000,0.300000,0.300000,0.050000,0.050000,0.050000,0.050000,0.050000,3.000000,3.000000],[0.050000,0.050000,0.050000,0.050000,0.050000,0.300000,0.300000,0.300000,0.300000,0.300000,0.050000,1.300000,1.300000,1.300000,0.050000,3.000000,3.000000],[0.050000,0.050000,0.050000,0.050000,0.050000,0.300000,0.300000,0.300000,0.300000,0.300000,0.050000,1.300000,1.300000,1.300000,0.050000,3.000000,3.000000],[0.050000,0.050000,0.050000,0.050000,0.050000,0.050000,0.050000,0.050000,0.050000,0.050000,0.050000,1.300000,1.300000,1.300000,0.050000,3.000000,3.000000],[0.050000,0.050000,0.050000,0.050000,0.050000,0.050000,0.050000,0.050000,0.050000,0.050000,0.050000,1.300000,1.300000,1.300000,0.050000,3.000000,3.000000],[0.050000,0.050000,0.050000,0.050000,0.050000,0.050000,0.050000,0.050000,0.050000,0.050000,0.050000,1.300000,1.300000,1.300000,0.050000,3.000000,3.000000],[0.050000,0.050000,0.050000,0.050000,0.050000,0.050000,0.050000,0.050000,0.050000,0.050000,0.050000,0.050000,0.050000,0.050000,0.050000,0.050000,0.050000],[0.050000,0.050000,0.050000,0.050000,0.050000,0.050000,0.050000,0.050000,0.050000,0.050000,0.050000,0.050000,0.050000,0.050000,0.050000,0.050000,0.050000],[0.000000,0.000000,0.000000,0.000000,0.000000,0.000000,0.000000,0.000000,0.050000,0.050000,0.050000,0.050000,0.050000,0.050000,0.050000,0.050000,0.050000],[0.000000,0.000000,0.000000,0.000000,0.000000,0.000000,0.000000,0.000000,0.050000,0.050000,0.050000,0.050000,0.050000,0.050000,0.050000,0.050000,0.050000],[0.000000,0.000000,0.000000,0.000000,0.000000,0.000000,0.000000,0.000000,0.050000,0.050000,0.050000,0.050000,0.050000,0.050000,0.050000,0.050000,0.050000]];
Ca=[[0.750000,0.750000,0.750000,0.750000,0.750000,0.750000,0.750000,0.750000,0.750000,0.750000,0.750000,0.750000,0.750000,0.750000,0.750000,0.365000,0.365000],[0.750000,0.750000,0.750000,0.750000,0.750000,0.125000,0.125000,0.125000,0.125000,0.125000,0.125000,0.125000,0.750000,0.750000,0.750000,0.365000,0.365000],[0.750000,0.750000,0.750000,0.750000,0.750000,0.125000,0.125000,0.125000,0.125000,0.125000,0.125000,0.125000,0.750000,0.750000,0.750000,0.365000,0.365000],[0.750000,0.750000,0.750000,0.750000,0.750000,0.125000,0.125000,0.125000,0.125000,0.125000,0.125000,0.125000,0.750000,0.750000,0.750000,0.365000,0.365000],[0.750000,0.750000,0.750000,0.750000,0.750000,0.670000,0.670000,0.670000,0.670000,0.670000,0.750000,0.750000,0.750000,0.750000,0.750000,0.365000,0.365000],[0.750000,0.750000,0.750000,0.750000,0.750000,0.670000,0.670000,0.670000,0.670000,0.670000,0.750000,0.500000,0.500000,0.500000,0.750000,0.365000,0.365000],[0.750000,0.750000,0.750000,0.750000,0.750000,0.670000,0.670000,0.670000,0.670000,0.670000,0.750000,0.500000,0.500000,0.500000,0.750000,0.365000,0.365000],[0.750000,0.750000,0.750000,0.750000,0.750000,0.750000,0.750000,0.750000,0.750000,0.750000,0.750000,0.500000,0.500000,0.500000,0.750000,0.365000,0.365000],[0.750000,0.750000,0.750000,0.750000,0.750000,0.750000,0.750000,0.750000,0.750000,0.750000,0.750000,0.500000,0.500000,0.500000,0.750000,0.365000,0.365000],[0.750000,0.750000,0.750000,0.750000,0.750000,0.750000,0.750000,0.750000,0.750000,0.750000,0.750000,0.500000,0.500000,0.500000,0.750000,0.365000,0.365000],[0.750000,0.750000,0.750000,0.750000,0.750000,0.750000,0.750000,0.750000,0.750000,0.750000,0.750000,0.750000,0.750000,0.750000,0.750000,0.750000,0.750000],[0.750000,0.750000,0.750000,0.750000,0.750000,0.750000,0.750000,0.750000,0.750000,0.750000,0.750000,0.750000,0.750000,0.750000,0.750000,0.750000,0.750000],[0.000000,0.000000,0.000000,0.000000,0.000000,0.000000,0.000000,0.000000,0.750000,0.750000,0.750000,0.750000,0.750000,0.750000,0.750000,0.750000,0.750000],[0.000000,0.000000,0.000000,0.000000,0.000000,0.000000,0.000000,0.000000,0.750000,0.750000,0.750000,0.750000,0.750000,0.750000,0.750000,0.750000,0.750000],[0.000000,0.000000,0.000000,0.000000,0.000000,0.000000,0.000000,0.000000,0.750000,0.750000,0.750000,0.750000,0.750000,0.750000,0.750000,0.750000,0.750000]];
Hp=[[0.000000,0.000000,0.000000,0.000000,0.000000,0.000000,0.000000,0.000000,0.000000,0.000000,0.000000,0.000000,0.000000,0.000000,0.000000,0.000000,0.000000],[0.000000,0.000000,0.000000,0.000000,0.000000,0.200000,0.200000,0.200000,0.200000,0.200000,0.200000,0.200000,0.000000,0.000000,0.000000,0.000000,0.000000],[0.000000,0.000000,0.000000,0.000000,0.000000,0.200000,0.200000,0.200000,0.200000,0.200000,0.200000,0.200000,0.000000,0.000000,0.000000,0.000000,0.000000],[0.000000,0.000000,0.000000,0.000000,0.000000,0.200000,0.200000,0.200000,0.200000,0.200000,0.200000,0.200000,0.000000,0.000000,0.000000,0.000000,0.000000],[0.000000,0.000000,0.000000,0.000000,0.000000,1.000000,1.000000,1.000000,1.000000,1.000000,0.000000,0.000000,0.000000,0.000000,0.000000,0.000000,0.000000],[0.000000,0.000000,0.000000,0.000000,0.000000,1.000000,1.000000,1.000000,1.000000,1.000000,0.000000,2.000000,2.000000,2.000000,0.000000,0.000000,0.000000],[0.000000,0.000000,0.000000,0.000000,0.000000,1.000000,1.000000,1.000000,1.000000,1.000000,0.000000,2.000000,2.000000,2.000000,0.000000,0.000000,0.000000],[0.000000,0.000000,0.000000,0.000000,0.000000,0.000000,0.000000,0.000000,0.000000,0.000000,0.000000,2.000000,2.000000,2.000000,0.000000,0.000000,0.000000],[0.000000,0.000000,0.000000,0.000000,0.000000,0.000000,0.000000,0.000000,0.000000,0.000000,0.000000,2.000000,2.000000,2.000000,0.000000,0.000000,0.000000],[0.000000,0.000000,0.000000,0.000000,0.000000,0.000000,0.000000,0.000000,0.000000,0.000000,0.000000,2.000000,2.000000,2.000000,0.000000,0.000000,0.000000],[0.000000,0.000000,0.000000,0.000000,0.000000,0.000000,0.000000,0.000000,0.000000,0.000000,0.000000,0.000000,0.000000,0.000000,0.000000,0.200000,0.200000],[0.000000,0.000000,0.000000,0.000000,0.000000,0.000000,0.000000,0.000000,0.000000,0.000000,0.000000,0.000000,0.000000,0.000000,0.000000,0.200000,0.200000],[0.000000,0.000000,0.000000,0.000000,0.000000,0.000000,0.000000,0.000000,0.200000,0.200000,0.200000,0.200000,0.200000,0.200000,0.200000,0.200000,0.200000],[0.000000,0.000000,0.000000,0.000000,0.000000,0.000000,0.000000,0.000000,0.200000,0.200000,0.200000,0.200000,0.200000,0.200000,0.200000,0.200000,0.200000],[0.000000,0.000000,0.000000,0.000000,0.000000,0.000000,0.000000,0.000000,0.200000,0.200000,0.200000,0.200000,0.200000,0.200000,0.200000,0.200000,0.200000]];
Cp=[[0.750000,0.750000,0.750000,0.750000,0.750000,0.750000,0.750000,0.750000,0.750000,0.750000,0.750000,0.750000,0.750000,0.750000,0.750000,0.750000,0.750000],[0.750000,0.750000,0.750000,0.750000,0.750000,0.630000,0.630000,0.630000,0.630000,0.630000,0.630000,0.630000,0.750000,0.750000,0.750000,0.750000,0.750000],[0.750000,0.750000,0.750000,0.750000,0.750000,0.630000,0.630000,0.630000,0.630000,0.630000,0.630000,0.630000,0.750000,0.750000,0.750000,0.750000,0.750000],[0.750000,0.750000,0.750000,0.750000,0.750000,0.630000,0.630000,0.630000,0.630000,0.630000,0.630000,0.630000,0.750000,0.750000,0.750000,0.750000,0.750000],[0.750000,0.750000,0.750000,0.750000,0.750000,0.500000,0.500000,0.500000,0.500000,0.500000,0.750000,0.750000,0.750000,0.750000,0.750000,0.750000,0.750000],[0.750000,0.750000,0.750000,0.750000,0.750000,0.500000,0.500000,0.500000,0.500000,0.500000,0.750000,0.370000,0.370000,0.370000,0.750000,0.750000,0.750000],[0.750000,0.750000,0.750000,0.750000,0.750000,0.500000,0.500000,0.500000,0.500000,0.500000,0.750000,0.370000,0.370000,0.370000,0.750000,0.750000,0.750000],[0.750000,0.750000,0.750000,0.750000,0.750000,0.750000,0.750000,0.750000,0.750000,0.750000,0.750000,0.370000,0.370000,0.370000,0.750000,0.750000,0.750000],[0.750000,0.750000,0.750000,0.750000,0.750000,0.750000,0.750000,0.750000,0.750000,0.750000,0.750000,0.370000,0.370000,0.370000,0.750000,0.750000,0.750000],[0.750000,0.750000,0.750000,0.750000,0.750000,0.750000,0.750000,0.750000,0.750000,0.750000,0.750000,0.370000,0.370000,0.370000,0.750000,0.750000,0.750000],[0.750000,0.750000,0.750000,0.750000,0.750000,0.750000,0.750000,0.750000,0.750000,0.750000,0.750000,0.750000,0.750000,0.750000,0.750000,0.630000,0.630000],[0.750000,0.750000,0.750000,0.750000,0.750000,0.750000,0.750000,0.750000,0.750000,0.750000,0.750000,0.750000,0.750000,0.750000,0.750000,0.630000,0.630000],[0.000000,0.000000,0.000000,0.000000,0.000000,0.000000,0.000000,0.000000,0.630000,0.630000,0.630000,0.630000,0.630000,0.630000,0.630000,0.630000,0.630000],[0.000000,0.000000,0.000000,0.000000,0.000000,0.000000,0.000000,0.000000,0.630000,0.630000,0.630000,0.630000,0.630000,0.630000,0.630000,0.630000,0.630000],[0.000000,0.000000,0.000000,0.000000,0.000000,0.000000,0.000000,0.000000,0.630000,0.630000,0.630000,0.630000,0.630000,0.630000,0.630000,0.630000,0.630000]];
